[VALIDATOR STDOUT]
Checking plan: /home/fjl2401/Safety-gen/benchmark_problems/ferry/optic_results/ferry-l04-c03-s4001.plan
Plan executed successfully - checking goal
Goal not satisfied
Plan invalid


Failed plans:
 /home/fjl2401/Safety-gen/benchmark_problems/ferry/optic_results/ferry-l04-c03-s4001.plan
